(set-info :source |printed by MathSAT|)
(declare-fun R_0 () Int)
(declare-fun .y.34 () Int)
(declare-fun A_2 () Int)
(declare-fun .y.35 () Int)
(declare-fun C_2 () Int)
(declare-fun .y.36 () Int)
(declare-fun .y.19 () Bool)
(declare-fun .y.37 () Bool)
(declare-fun .y.20 () (Array Int Int))
(declare-fun .y.38 () (Array Int Int))
(declare-fun .y.21 () Int)
(declare-fun .y.39 () Int)
(declare-fun .y.22 () Int)
(declare-fun .y.40 () Int)
(declare-fun .y.23 () Int)
(declare-fun .y.41 () Int)
(declare-fun .y.24 () (Array Int Int))
(declare-fun .y.42 () (Array Int Int))
(declare-fun .y.25 () Int)
(declare-fun .y.43 () Int)
(declare-fun .y.26 () Int)
(declare-fun .y.44 () Int)
(declare-fun .y.27 () Int)
(declare-fun .y.45 () Int)
(declare-fun .y.28 () (Array Int Int))
(declare-fun .y.46 () (Array Int Int))
(declare-fun .y.29 () Int)
(declare-fun .y.47 () Int)
(declare-fun .y.30 () (Array Int Int))
(declare-fun .y.48 () (Array Int Int))
(declare-fun .loc.31 () Bool)
(declare-fun .loc.49 () Bool)
(declare-fun .loc.32 () Bool)
(declare-fun .loc.50 () Bool)
(declare-fun .loc.33 () Bool)
(declare-fun .loc.51 () Bool)
(declare-fun D_1 () Int)
(declare-fun F_1 () Int)
(declare-fun G_1 () (Array Int Int))
(declare-fun H_1 () Int)
(declare-fun N_1 () Int)
(declare-fun Y_0 () Int)
(define-fun .def_8 () Int (! R_0 :next |.y.34|))
(define-fun .def_10 () Int (! A_2 :next |.y.35|))
(define-fun .def_12 () Int (! C_2 :next |.y.36|))
(define-fun .def_14 () Bool (! .y.19 :next |.y.37|))
(define-fun .def_16 () (Array Int Int) (! .y.20 :next |.y.38|))
(define-fun .def_18 () Int (! .y.21 :next |.y.39|))
(define-fun .def_20 () Int (! .y.22 :next |.y.40|))
(define-fun .def_22 () Int (! .y.23 :next |.y.41|))
(define-fun .def_24 () (Array Int Int) (! .y.24 :next |.y.42|))
(define-fun .def_26 () Int (! .y.25 :next |.y.43|))
(define-fun .def_28 () Int (! .y.26 :next |.y.44|))
(define-fun .def_30 () Int (! .y.27 :next |.y.45|))
(define-fun .def_32 () (Array Int Int) (! .y.28 :next |.y.46|))
(define-fun .def_34 () Int (! .y.29 :next |.y.47|))
(define-fun .def_36 () (Array Int Int) (! .y.30 :next |.y.48|))
(define-fun .def_38 () Bool (! .loc.31 :next |.loc.49|))
(define-fun .def_40 () Bool (! .loc.32 :next |.loc.50|))
(define-fun .def_42 () Bool (! .loc.33 :next |.loc.51|))
(define-fun .def_60 () Int (! D_1 :next |.xtv.1|))
(define-fun .def_62 () Int (! F_1 :next |.xtv.2|))
(define-fun .def_296 () (Array Int Int) (! G_1 :next |.xtv.3|))
(define-fun .def_386 () Int (! H_1 :next |.xtv.4|))
(define-fun .def_400 () Int (! N_1 :next |.xtv.5|))
(define-fun .def_410 () Int (! Y_0 :next |.xtv.6|))
(define-fun .def_442 () Bool (not .def_42))
(define-fun .def_198 () Bool (not .def_40))
(define-fun .def_124 () Bool (not .def_38))
(define-fun .def_292 () Bool (and .def_124 .def_198))
(define-fun .def_444 () Bool (! (and .def_292 .def_442) :init true))
(define-fun .def_422 () (Array Int Int) (store .def_296 .def_386 0))
(define-fun .def_423 () Int (select .def_422 .def_400))
(define-fun .def_424 () Bool (= .def_8 .def_423))
(define-fun .def_425 () Bool (not .def_424))
(define-fun .def_411 () Int (* (- 1) .def_410))
(define-fun .def_415 () Int (* (- 1) .def_400))
(define-fun .def_418 () Int (+ .def_415 .def_411))
(define-fun .def_419 () Int (+ .def_386 .def_418))
(define-fun .def_420 () Bool (= .def_419 0))
(define-fun .def_412 () Int (+ .def_62 .def_411))
(define-fun .def_413 () Bool (= .def_412 1))
(define-fun .def_406 () Bool (<= .def_386 0))
(define-fun .def_407 () Bool (not .def_406))
(define-fun .def_401 () Bool (<= .def_400 0))
(define-fun .def_408 () Bool (or .def_401 .def_407))
(define-fun .def_402 () Bool (not .def_401))
(define-fun .def_98 () Bool (<= .def_60 0))
(define-fun .def_99 () Bool (not .def_98))
(define-fun .def_403 () Bool (and .def_99 .def_402))
(define-fun .def_94 () Bool (<= .def_62 0))
(define-fun .def_404 () Bool (and .def_94 .def_403))
(define-fun .def_95 () Bool (not .def_94))
(define-fun .def_405 () Bool (and .def_95 .def_404))
(define-fun .def_409 () Bool (and .def_405 .def_408))
(define-fun .def_414 () Bool (and .def_409 .def_413))
(define-fun .def_421 () Bool (and .def_414 .def_420))
(define-fun .def_426 () Bool (and .def_421 .def_425))
(define-fun .def_427 () Bool (and .def_124 .def_426))
(define-fun .def_73 () Int (* (- 1) .def_62))
(define-fun .def_392 () Int (+ .def_73 .def_386))
(define-fun .def_393 () Int (+ .def_10 .def_392))
(define-fun .def_394 () Bool (= .def_393 0))
(define-fun .def_388 () Int (* (- 1) .def_386))
(define-fun .def_389 () Int (+ .def_8 .def_388))
(define-fun .def_390 () Bool (= .def_389 1))
(define-fun .def_205 () Int (+ .def_10 .def_22))
(define-fun .def_218 () (Array Int Int) (store .def_24 .def_205 .def_60))
(define-fun .def_219 () (Array Int Int) (store .def_218 .def_62 0))
(define-fun .def_380 () Int (select .def_219 .def_10))
(define-fun .def_381 () Bool (= .def_18 .def_380))
(define-fun .def_382 () Bool (not .def_381))
(define-fun .def_197 () Bool (and .def_14 .def_38))
(define-fun .def_383 () Bool (and .def_197 .def_382))
(define-fun .def_202 () Bool (<= .def_10 0))
(define-fun .def_203 () Bool (not .def_202))
(define-fun .def_384 () Bool (and .def_203 .def_383))
(define-fun .def_391 () Bool (and .def_384 .def_390))
(define-fun .def_395 () Bool (and .def_391 .def_394))
(define-fun .def_206 () Bool (<= .def_205 0))
(define-fun .def_207 () Bool (not .def_206))
(define-fun .def_208 () Bool (or .def_202 .def_207))
(define-fun .def_396 () Bool (and .def_208 .def_395))
(define-fun .def_47 () Bool (not .def_14))
(define-fun .def_397 () Bool (and .def_47 .def_396))
(define-fun .def_87 () Int (* (- 1) .def_22))
(define-fun .def_211 () Int (+ .def_8 .def_87))
(define-fun .def_212 () Bool (<= .def_211 1))
(define-fun .def_398 () Bool (and .def_212 .def_397))
(define-fun .def_214 () Bool (or .def_95 .def_202))
(define-fun .def_399 () Bool (and .def_214 .def_398))
(define-fun .def_428 () Bool (or .def_399 .def_427))
(define-fun .def_429 () Bool (and .def_198 .def_428))
(define-fun .def_135 () Int (+ .def_12 .def_30))
(define-fun .def_153 () (Array Int Int) (store .def_32 .def_135 .def_26))
(define-fun .def_154 () Int (select .def_153 .def_60))
(define-fun .def_155 () Bool (= .def_26 .def_154))
(define-fun .def_156 () Bool (not .def_155))
(define-fun .def_123 () Bool (and .def_14 .def_40))
(define-fun .def_125 () Bool (and .def_123 .def_124))
(define-fun .def_374 () Bool (and .def_125 .def_156))
(define-fun .def_128 () Bool (<= .def_12 0))
(define-fun .def_129 () Bool (not .def_128))
(define-fun .def_375 () Bool (and .def_129 .def_374))
(define-fun .def_82 () Int (* (- 1) .def_60))
(define-fun .def_131 () Int (+ .def_18 .def_82))
(define-fun .def_132 () Int (+ .def_12 .def_131))
(define-fun .def_133 () Bool (= .def_132 0))
(define-fun .def_376 () Bool (and .def_133 .def_375))
(define-fun .def_136 () Bool (<= .def_135 0))
(define-fun .def_137 () Bool (not .def_136))
(define-fun .def_138 () Bool (or .def_128 .def_137))
(define-fun .def_377 () Bool (and .def_138 .def_376))
(define-fun .def_140 () Bool (<= .def_28 1))
(define-fun .def_378 () Bool (and .def_140 .def_377))
(define-fun .def_142 () Bool (or .def_99 .def_128))
(define-fun .def_379 () Bool (and .def_142 .def_378))
(define-fun .def_430 () Bool (or .def_379 .def_429))
(define-fun .def_358 () Int (+ .def_18 .def_26))
(define-fun .def_367 () Int (+ .def_358 1))
(define-fun .def_368 () Int (select .def_32 .def_367))
(define-fun .def_349 () Int (+ .def_20 .def_34))
(define-fun .def_364 () Int (+ .def_349 (- 1)))
(define-fun .def_365 () Int (select .def_36 .def_364))
(define-fun .def_369 () Bool (= .def_365 .def_368))
(define-fun .def_370 () Bool (not .def_369))
(define-fun .def_359 () Bool (<= .def_358 (- 1)))
(define-fun .def_360 () Bool (not .def_359))
(define-fun .def_53 () Bool (<= .def_26 0))
(define-fun .def_361 () Bool (or .def_53 .def_360))
(define-fun .def_354 () Int (+ .def_18 .def_87))
(define-fun .def_355 () Bool (<= (- 1) .def_354))
(define-fun .def_356 () Bool (not .def_355))
(define-fun .def_350 () Bool (<= .def_349 1))
(define-fun .def_351 () Bool (not .def_350))
(define-fun .def_50 () Bool (<= .def_34 0))
(define-fun .def_352 () Bool (or .def_50 .def_351))
(define-fun .def_44 () Bool (and .def_38 .def_40))
(define-fun .def_348 () Bool (and .def_44 .def_47))
(define-fun .def_353 () Bool (and .def_348 .def_352))
(define-fun .def_357 () Bool (and .def_353 .def_356))
(define-fun .def_362 () Bool (and .def_357 .def_361))
(define-fun .def_371 () Bool (and .def_362 .def_370))
(define-fun .def_51 () Bool (not .def_50))
(define-fun .def_372 () Bool (and .def_51 .def_371))
(define-fun .def_54 () Bool (not .def_53))
(define-fun .def_373 () Bool (and .def_54 .def_372))
(define-fun .def_431 () Bool (or .def_373 .def_430))
(define-fun .def_167 () Bool (not .loc.49))
(define-fun .def_347 () Bool (and .loc.51 .def_167))
(define-fun .def_432 () Bool (and .def_347 .def_431))
(define-fun .def_345 () Bool (= .def_10 .y.40))
(define-fun .def_343 () Bool (= .def_8 .y.39))
(define-fun .def_340 () Bool (<= .y.35 0))
(define-fun .def_341 () Bool (not .def_340))
(define-fun .def_337 () Bool (<= .y.36 0))
(define-fun .def_338 () Bool (not .def_337))
(define-fun .def_333 () Bool (<= .y.34 0))
(define-fun .def_334 () Bool (not .def_333))
(define-fun .def_335 () Bool (= .y.37 .def_334))
(define-fun .def_331 () Bool (= .y.41 0))
(define-fun .def_328 () Bool (and .y.37 .def_292))
(define-fun .def_329 () Bool (and .loc.49 .def_328))
(define-fun .def_56 () Bool (not .loc.51))
(define-fun .def_330 () Bool (and .def_56 .def_329))
(define-fun .def_332 () Bool (and .def_330 .def_331))
(define-fun .def_336 () Bool (and .def_332 .def_335))
(define-fun .def_339 () Bool (and .def_336 .def_338))
(define-fun .def_342 () Bool (and .def_339 .def_341))
(define-fun .def_344 () Bool (and .def_342 .def_343))
(define-fun .def_346 () Bool (and .def_344 .def_345))
(define-fun .def_433 () Bool (or .def_346 .def_432))
(define-fun .def_270 () Bool (not .loc.50))
(define-fun .def_434 () Bool (and .def_270 .def_433))
(define-fun .def_325 () Bool (<= .y.47 0))
(define-fun .def_326 () Bool (not .def_325))
(define-fun .def_319 () Bool (<= .y.43 0))
(define-fun .def_323 () Bool (or .def_99 .def_319))
(define-fun .def_320 () Bool (not .def_319))
(define-fun .def_315 () Bool (<= .y.41 0))
(define-fun .def_317 () Bool (not .def_315))
(define-fun .def_310 () Int (select .y.46 .y.43))
(define-fun .def_311 () Bool (= .def_8 .def_310))
(define-fun .def_312 () Bool (not .def_311))
(define-fun .def_313 () Bool (= .y.37 .def_312))
(define-fun .def_277 () Int (* (- 1) .y.41))
(define-fun .def_307 () Int (+ .y.40 .def_277))
(define-fun .def_308 () Bool (= .def_307 (- 1)))
(define-fun .def_303 () Int (+ .y.43 .def_82))
(define-fun .def_304 () Int (+ .y.40 .def_303))
(define-fun .def_305 () Bool (= .def_304 0))
(define-fun .def_297 () (Array Int Int) (store .def_296 .def_60 0))
(define-fun .def_298 () Bool (= .y.46 .def_297))
(define-fun .def_293 () Bool (and .loc.49 .def_292))
(define-fun .def_294 () Bool (and .loc.50 .def_293))
(define-fun .def_295 () Bool (and .def_56 .def_294))
(define-fun .def_299 () Bool (and .def_295 .def_298))
(define-fun .def_306 () Bool (and .def_299 .def_305))
(define-fun .def_309 () Bool (and .def_306 .def_308))
(define-fun .def_314 () Bool (and .def_309 .def_313))
(define-fun .def_316 () Bool (and .def_314 .def_315))
(define-fun .def_318 () Bool (and .def_316 .def_317))
(define-fun .def_321 () Bool (and .def_318 .def_320))
(define-fun .def_145 () Bool (= .y.39 0))
(define-fun .def_322 () Bool (and .def_145 .def_321))
(define-fun .def_324 () Bool (and .def_322 .def_323))
(define-fun .def_327 () Bool (and .def_324 .def_326))
(define-fun .def_435 () Bool (or .def_327 .def_434))
(define-fun .def_290 () Bool (= .def_20 .y.40))
(define-fun .def_287 () Bool (= .def_16 .y.38))
(define-fun .def_281 () Bool (not .def_212))
(define-fun .def_278 () Int (+ .def_22 .def_277))
(define-fun .def_279 () Bool (= .def_278 (- 1)))
(define-fun .def_275 () Bool (= .y.42 .def_218))
(define-fun .def_268 () Bool (and .def_38 .def_198))
(define-fun .def_269 () Bool (and .loc.49 .def_268))
(define-fun .def_271 () Bool (and .def_269 .def_270))
(define-fun .def_272 () Bool (and .def_203 .def_271))
(define-fun .def_273 () Bool (and .def_208 .def_272))
(define-fun .def_274 () Bool (and .def_56 .def_273))
(define-fun .def_276 () Bool (and .def_274 .def_275))
(define-fun .def_280 () Bool (and .def_276 .def_279))
(define-fun .def_282 () Bool (and .def_280 .def_281))
(define-fun .def_172 () Bool (= .def_8 .y.34))
(define-fun .def_283 () Bool (and .def_172 .def_282))
(define-fun .def_174 () Bool (= .def_10 .y.35))
(define-fun .def_284 () Bool (and .def_174 .def_283))
(define-fun .def_176 () Bool (= .def_12 .y.36))
(define-fun .def_285 () Bool (and .def_176 .def_284))
(define-fun .def_178 () Bool (= .def_14 .y.37))
(define-fun .def_286 () Bool (and .def_178 .def_285))
(define-fun .def_288 () Bool (and .def_286 .def_287))
(define-fun .def_180 () Bool (= .def_18 .y.39))
(define-fun .def_289 () Bool (and .def_180 .def_288))
(define-fun .def_291 () Bool (and .def_289 .def_290))
(define-fun .def_436 () Bool (or .def_291 .def_435))
(define-fun .def_266 () Bool (= .def_16 .y.46))
(define-fun .def_264 () Bool (= .def_8 .y.44))
(define-fun .def_262 () Bool (= .y.45 0))
(define-fun .def_260 () Bool (= .y.42 .def_219))
(define-fun .def_78 () Int (* (- 1) .y.39))
(define-fun .def_257 () Int (+ .def_8 .def_78))
(define-fun .def_258 () Bool (= .def_257 1))
(define-fun .def_253 () Int (+ .y.39 .def_73))
(define-fun .def_254 () Int (+ .def_10 .def_253))
(define-fun .def_255 () Bool (= .def_254 0))
(define-fun .def_250 () Int (select .y.42 .def_10))
(define-fun .def_251 () Bool (= .y.43 .def_250))
(define-fun .def_199 () Bool (and .def_197 .def_198))
(define-fun .def_239 () Bool (and .loc.50 .def_199))
(define-fun .def_240 () Bool (and .def_167 .def_239))
(define-fun .def_241 () Bool (and .def_203 .def_240))
(define-fun .def_242 () Bool (and .def_208 .def_241))
(define-fun .def_243 () Bool (and .def_212 .def_242))
(define-fun .def_244 () Bool (and .def_214 .def_243))
(define-fun .def_245 () Bool (and .def_56 .def_244))
(define-fun .def_246 () Bool (and .def_172 .def_245))
(define-fun .def_247 () Bool (and .def_174 .def_246))
(define-fun .def_248 () Bool (and .def_176 .def_247))
(define-fun .def_249 () Bool (and .def_178 .def_248))
(define-fun .def_252 () Bool (and .def_249 .def_251))
(define-fun .def_256 () Bool (and .def_252 .def_255))
(define-fun .def_259 () Bool (and .def_256 .def_258))
(define-fun .def_261 () Bool (and .def_259 .def_260))
(define-fun .def_263 () Bool (and .def_261 .def_262))
(define-fun .def_265 () Bool (and .def_263 .def_264))
(define-fun .def_267 () Bool (and .def_265 .def_266))
(define-fun .def_437 () Bool (or .def_267 .def_436))
(define-fun .def_234 () Bool (= .def_16 .y.48))
(define-fun .def_229 () Int (select .y.46 .def_10))
(define-fun .def_230 () Bool (= .def_18 .def_229))
(define-fun .def_231 () Bool (not .def_230))
(define-fun .def_232 () Bool (= .y.37 .def_231))
(define-fun .def_69 () Int (* (- 1) .y.40))
(define-fun .def_226 () Int (+ .def_8 .def_69))
(define-fun .def_227 () Bool (= .def_226 1))
(define-fun .def_222 () Int (+ .y.40 .def_73))
(define-fun .def_223 () Int (+ .def_10 .def_222))
(define-fun .def_224 () Bool (= .def_223 0))
(define-fun .def_220 () Bool (= .y.46 .def_219))
(define-fun .def_200 () Bool (and .loc.49 .def_199))
(define-fun .def_201 () Bool (and .loc.50 .def_200))
(define-fun .def_204 () Bool (and .def_201 .def_203))
(define-fun .def_209 () Bool (and .def_204 .def_208))
(define-fun .def_210 () Bool (and .def_47 .def_209))
(define-fun .def_213 () Bool (and .def_210 .def_212))
(define-fun .def_215 () Bool (and .def_213 .def_214))
(define-fun .def_216 () Bool (and .def_56 .def_215))
(define-fun .def_217 () Bool (and .def_145 .def_216))
(define-fun .def_221 () Bool (and .def_217 .def_220))
(define-fun .def_225 () Bool (and .def_221 .def_224))
(define-fun .def_228 () Bool (and .def_225 .def_227))
(define-fun .def_233 () Bool (and .def_228 .def_232))
(define-fun .def_235 () Bool (and .def_233 .def_234))
(define-fun .def_147 () Bool (= .def_8 .y.41))
(define-fun .def_236 () Bool (and .def_147 .def_235))
(define-fun .def_149 () Bool (= .def_10 .y.43))
(define-fun .def_237 () Bool (and .def_149 .def_236))
(define-fun .def_151 () Bool (= .def_12 .y.47))
(define-fun .def_238 () Bool (and .def_151 .def_237))
(define-fun .def_438 () Bool (or .def_238 .def_437))
(define-fun .def_194 () Bool (= .def_24 .y.42))
(define-fun .def_192 () Bool (not .def_140))
(define-fun .def_188 () Int (* (- 1) .y.45))
(define-fun .def_189 () Int (+ .def_30 .def_188))
(define-fun .def_190 () Bool (= .def_189 (- 1)))
(define-fun .def_184 () Int (* (- 1) .y.44))
(define-fun .def_185 () Int (+ .def_28 .def_184))
(define-fun .def_186 () Bool (= .def_185 1))
(define-fun .def_182 () Bool (= .y.46 .def_153))
(define-fun .def_165 () Bool (and .def_40 .def_124))
(define-fun .def_166 () Bool (and .loc.50 .def_165))
(define-fun .def_168 () Bool (and .def_166 .def_167))
(define-fun .def_169 () Bool (and .def_129 .def_168))
(define-fun .def_170 () Bool (and .def_138 .def_169))
(define-fun .def_171 () Bool (and .def_56 .def_170))
(define-fun .def_173 () Bool (and .def_171 .def_172))
(define-fun .def_175 () Bool (and .def_173 .def_174))
(define-fun .def_177 () Bool (and .def_175 .def_176))
(define-fun .def_179 () Bool (and .def_177 .def_178))
(define-fun .def_181 () Bool (and .def_179 .def_180))
(define-fun .def_183 () Bool (and .def_181 .def_182))
(define-fun .def_187 () Bool (and .def_183 .def_186))
(define-fun .def_191 () Bool (and .def_187 .def_190))
(define-fun .def_193 () Bool (and .def_191 .def_192))
(define-fun .def_195 () Bool (and .def_193 .def_194))
(define-fun .def_58 () Bool (= .def_26 .y.43))
(define-fun .def_196 () Bool (and .def_58 .def_195))
(define-fun .def_439 () Bool (or .def_196 .def_438))
(define-fun .def_163 () Bool (= .def_24 .y.46))
(define-fun .def_161 () Bool (= .y.48 .def_153))
(define-fun .def_159 () Bool (= .def_18 .y.40))
(define-fun .def_157 () Bool (= .y.37 .def_156))
(define-fun .def_126 () Bool (and .loc.49 .def_125))
(define-fun .def_127 () Bool (and .loc.50 .def_126))
(define-fun .def_130 () Bool (and .def_127 .def_129))
(define-fun .def_134 () Bool (and .def_130 .def_133))
(define-fun .def_139 () Bool (and .def_134 .def_138))
(define-fun .def_141 () Bool (and .def_139 .def_140))
(define-fun .def_143 () Bool (and .def_141 .def_142))
(define-fun .def_144 () Bool (and .def_56 .def_143))
(define-fun .def_146 () Bool (and .def_144 .def_145))
(define-fun .def_148 () Bool (and .def_146 .def_147))
(define-fun .def_150 () Bool (and .def_148 .def_149))
(define-fun .def_152 () Bool (and .def_150 .def_151))
(define-fun .def_158 () Bool (and .def_152 .def_157))
(define-fun .def_160 () Bool (and .def_158 .def_159))
(define-fun .def_162 () Bool (and .def_160 .def_161))
(define-fun .def_164 () Bool (and .def_162 .def_163))
(define-fun .def_440 () Bool (or .def_164 .def_439))
(define-fun .def_121 () Bool (= .def_36 .y.48))
(define-fun .def_119 () Bool (= .def_34 .y.47))
(define-fun .def_117 () Bool (= .def_32 .y.46))
(define-fun .def_115 () Bool (= .def_22 .y.41))
(define-fun .def_74 () Int (+ .def_34 .def_73))
(define-fun .def_112 () Int (+ .def_20 .def_74))
(define-fun .def_113 () Bool (= .def_112 1))
(define-fun .def_83 () Int (+ .def_26 .def_82))
(define-fun .def_106 () Int (+ .def_18 .def_83))
(define-fun .def_107 () Bool (= .def_106 (- 1)))
(define-fun .def_100 () Bool (or .def_53 .def_99))
(define-fun .def_96 () Bool (or .def_50 .def_95))
(define-fun .def_90 () Int (+ .def_22 .def_83))
(define-fun .def_91 () Bool (<= .def_90 0))
(define-fun .def_92 () Bool (not .def_91))
(define-fun .def_84 () Int (+ .y.39 .def_83))
(define-fun .def_85 () Bool (= .def_84 0))
(define-fun .def_75 () Int (+ .y.40 .def_74))
(define-fun .def_76 () Bool (= .def_75 0))
(define-fun .def_63 () Int (select .def_36 .def_62))
(define-fun .def_61 () Int (select .def_32 .def_60))
(define-fun .def_64 () Bool (= .def_61 .def_63))
(define-fun .def_65 () Bool (not .def_64))
(define-fun .def_66 () Bool (= .y.37 .def_65))
(define-fun .def_45 () Bool (and .loc.49 .def_44))
(define-fun .def_46 () Bool (and .loc.50 .def_45))
(define-fun .def_48 () Bool (and .def_46 .def_47))
(define-fun .def_52 () Bool (and .def_48 .def_51))
(define-fun .def_55 () Bool (and .def_52 .def_54))
(define-fun .def_57 () Bool (and .def_55 .def_56))
(define-fun .def_59 () Bool (and .def_57 .def_58))
(define-fun .def_67 () Bool (and .def_59 .def_66))
(define-fun .def_77 () Bool (and .def_67 .def_76))
(define-fun .def_86 () Bool (and .def_77 .def_85))
(define-fun .def_93 () Bool (and .def_86 .def_92))
(define-fun .def_97 () Bool (and .def_93 .def_96))
(define-fun .def_101 () Bool (and .def_97 .def_100))
(define-fun .def_108 () Bool (and .def_101 .def_107))
(define-fun .def_114 () Bool (and .def_108 .def_113))
(define-fun .def_116 () Bool (and .def_114 .def_115))
(define-fun .def_118 () Bool (and .def_116 .def_117))
(define-fun .def_120 () Bool (and .def_118 .def_119))
(define-fun .def_122 () Bool (and .def_120 .def_121))
(define-fun .def_441 () Bool (or .def_122 .def_440))
(define-fun .def_443 () Bool (! (and .def_441 .def_442) :trans true))
(define-fun .def_445 () Bool (and .def_42 .def_292))
(define-fun .def_446 () Bool (! (not .def_445) :invar-property 0))
(assert true)
